certificates/rado_a6_c172_N29.cnf
c Rad2 upper bound instance: x1 + 6*x2 - x3 = 172, interval [1,29]
p cnf 29 184
1 3 29 0
-1 -3 -29 0
2 4 29 0
-2 -4 -29 0
3 5 29 0
-3 -5 -29 0
4 6 29 0
-4 -6 -29 0
1 5 28 0
-1 -5 -28 0
5 7 29 0
-5 -7 -29 0
2 6 28 0
-2 -6 -28 0
6 8 29 0
-6 -8 -29 0
3 7 28 0
-3 -7 -28 0
7 9 29 0
-7 -9 -29 0
4 8 28 0
-4 -8 -28 0
8 10 29 0
-8 -10 -29 0
5 9 28 0
-5 -9 -28 0
9 11 29 0
-9 -11 -29 0
6 10 28 0
-6 -10 -28 0
10 12 29 0
-10 -12 -29 0
1 11 27 0
-1 -11 -27 0
7 11 28 0
-7 -11 -28 0
11 13 29 0
-11 -13 -29 0
2 12 27 0
-2 -12 -27 0
8 12 28 0
-8 -12 -28 0
12 14 29 0
-12 -14 -29 0
3 13 27 0
-3 -13 -27 0
9 13 28 0
-9 -13 -28 0
13 15 29 0
-13 -15 -29 0
4 14 27 0
-4 -14 -27 0
10 14 28 0
-10 -14 -28 0
14 16 29 0
-14 -16 -29 0
5 15 27 0
-5 -15 -27 0
11 15 28 0
-11 -15 -28 0
15 17 29 0
-15 -17 -29 0
6 16 27 0
-6 -16 -27 0
12 16 28 0
-12 -16 -28 0
16 18 29 0
-16 -18 -29 0
1 17 26 0
-1 -17 -26 0
7 17 27 0
-7 -17 -27 0
13 17 28 0
-13 -17 -28 0
17 19 29 0
-17 -19 -29 0
2 18 26 0
-2 -18 -26 0
8 18 27 0
-8 -18 -27 0
14 18 28 0
-14 -18 -28 0
18 20 29 0
-18 -20 -29 0
3 19 26 0
-3 -19 -26 0
9 19 27 0
-9 -19 -27 0
15 19 28 0
-15 -19 -28 0
19 21 29 0
-19 -21 -29 0
4 20 26 0
-4 -20 -26 0
10 20 27 0
-10 -20 -27 0
16 20 28 0
-16 -20 -28 0
20 22 29 0
-20 -22 -29 0
5 21 26 0
-5 -21 -26 0
11 21 27 0
-11 -21 -27 0
17 21 28 0
-17 -21 -28 0
21 23 29 0
-21 -23 -29 0
6 22 26 0
-6 -22 -26 0
12 22 27 0
-12 -22 -27 0
18 22 28 0
-18 -22 -28 0
22 24 29 0
-22 -24 -29 0
1 23 25 0
-1 -23 -25 0
7 23 26 0
-7 -23 -26 0
13 23 27 0
-13 -23 -27 0
19 23 28 0
-19 -23 -28 0
23 25 29 0
-23 -25 -29 0
2 24 25 0
-2 -24 -25 0
8 24 26 0
-8 -24 -26 0
14 24 27 0
-14 -24 -27 0
20 24 28 0
-20 -24 -28 0
24 26 29 0
-24 -26 -29 0
3 25 0
-3 -25 0
9 25 26 0
-9 -25 -26 0
15 25 27 0
-15 -25 -27 0
21 25 28 0
-21 -25 -28 0
25 27 29 0
-25 -27 -29 0
4 25 26 0
-4 -25 -26 0
10 26 0
-10 -26 0
16 26 27 0
-16 -26 -27 0
22 26 28 0
-22 -26 -28 0
26 28 29 0
-26 -28 -29 0
5 25 27 0
-5 -25 -27 0
11 26 27 0
-11 -26 -27 0
17 27 0
-17 -27 0
23 27 28 0
-23 -27 -28 0
27 29 0
-27 -29 0
6 25 28 0
-6 -25 -28 0
12 26 28 0
-12 -26 -28 0
18 27 28 0
-18 -27 -28 0
24 28 0
-24 -28 0
1 24 29 0
-1 -24 -29 0
7 25 29 0
-7 -25 -29 0
13 26 29 0
-13 -26 -29 0
19 27 29 0
-19 -27 -29 0
25 28 29 0
-25 -28 -29 0
