certificates/rado_a6_c172_N29.drat
-29 0
27 0
-17 0
15 0
19 0
-5 0
-25 0
-9 0
-28 0
3 0
7 0
0
